python/teste3
3 3
0 3 2 9 1 9
2 7 1 8 0 1
0 7 1 4 2 1
